(Al)4  (Fm-3m) 
1.000000
49.457225 0.000000 0.000000
0.000000 24.728613 0.000000
0.000000 0.000000 8.082800
70
Direct
0.500000 0.000000 0.000000
0.964744 0.352564 0.500000
0.035256 0.352564 0.500000
0.580128 0.032051 0.500000
0.419872 0.032051 0.500000
0.564103 0.192308 0.000000
0.435897 0.192308 0.000000
0.948718 0.512821 0.000000
0.051282 0.512821 0.000000
0.932692 0.673077 0.500000
0.067308 0.673077 0.500000
0.548077 0.352564 0.500000
0.451923 0.352564 0.500000
0.532051 0.512821 0.000000
0.467949 0.512821 0.000000
0.916667 0.833333 0.000000
0.083333 0.833333 0.000000
0.900641 0.993590 0.500000
0.099359 0.993590 0.500000
0.516026 0.673077 0.500000
0.500000 0.833333 0.000000
0.660256 0.064103 0.000000
0.339744 0.064103 0.000000
0.644231 0.224359 0.500000
0.355769 0.224359 0.500000
0.740385 0.096154 0.500000
0.259615 0.096154 0.500000
0.724359 0.256410 0.000000
0.275641 0.256410 0.000000
0.628205 0.384615 0.000000
0.371795 0.384615 0.000000
0.612179 0.544872 0.500000
0.387821 0.544872 0.500000
0.708333 0.416667 0.500000
0.291667 0.416667 0.500000
0.692308 0.576923 0.000000
0.307692 0.576923 0.000000
0.596154 0.705128 0.000000
0.403846 0.705128 0.000000
0.580128 0.865385 0.500000
0.419872 0.865385 0.500000
0.676282 0.737179 0.500000
0.323718 0.737179 0.500000
0.660256 0.897436 0.000000
0.339744 0.897436 0.000000
0.820513 0.128205 0.000000
0.179487 0.128205 0.000000
0.804487 0.288462 0.500000
0.195513 0.288462 0.500000
0.900641 0.160256 0.500000
0.099359 0.160256 0.500000
0.884615 0.320513 0.000000
0.115385 0.320513 0.000000
0.788462 0.448718 0.000000
0.211538 0.448718 0.000000
0.772436 0.608974 0.500000
0.227564 0.608974 0.500000
0.868590 0.480769 0.500000
0.131410 0.480769 0.500000
0.852564 0.641026 0.000000
0.147436 0.641026 0.000000
0.756410 0.769231 0.000000
0.243590 0.769231 0.000000
0.740385 0.929487 0.500000
0.259615 0.929487 0.500000
0.836538 0.801282 0.500000
0.163462 0.801282 0.500000
0.820513 0.961538 0.000000
0.179487 0.961538 0.000000
0.980769 0.192308 0.000000

